0 0 0 0 0 0 1 0 0 1 1 
0 45 48 8 9 23 28 53 20 36 49 
45 0 18 56 48 21 32 14 11 51 34 
48 18 0 54 17 22 14 31 55 29 56 
8 56 54 0 53 45 34 38 39 16 10 
9 48 17 53 0 11 53 21 30 47 20 
23 21 22 45 11 0 34 34 44 44 34 
28 32 14 34 53 34 0 43 39 50 50 
53 14 31 38 21 34 43 0 12 12 45 
20 11 55 39 30 44 39 12 0 12 42 
36 51 29 16 47 44 50 12 12 0 19 
49 34 56 10 20 34 50 45 42 19 0 
9 31
1B 4B 11P 10P 8B 9B 2B 3B 7P 6B 5B = 158